NAME : gaussian_missing_edges_with_de_seg1_seg2_seg3_random39.4596.tour
COMMENT : Length = 4596
COMMENT : Found by LKH [Keld Helsgaun] Fri Jul 12 16:32:42 2024
TYPE : TOUR
DIMENSION : 39
TOUR_SECTION
1
17
22
9
5
27
29
19
21
20
34
16
25
30
6
33
31
4
3
24
12
14
8
32
39
15
28
10
26
36
13
18
37
35
2
23
7
11
38
-1
EOF
